c --- [ banner ] -------------------------------------------------------------
c 
c CaDiCaL Radically Simplified CDCL SAT Solver
c Copyright (c) 2016-2021 A. Biere, M. Fleury, N. Froleyks
c 
c Version 1.5.2 9c38a080b32c28d805e8e6ca21849856b0cda605
c g++ (Ubuntu 7.5.0-3ubuntu1~18.04) 7.5.0 -Wall -Wextra -O3 -DNDEBUG
c Wed Feb 16 23:15:36 EST 2022 Linux fac-vanhoeve01 5.4.0-99-generic x86_64
c 
c --- [ limit ] --------------------------------------------------------------
c 
c setting time limit to 600 seconds real time (due to '-t 600')
c setting conflict limit to 1000000000 conflicts (due to '1000000000')
c 
c --- [ parsing input ] ------------------------------------------------------
c 
c reading DIMACS file from 'ddfwcnfs/r1000.5.col_234.cnf'
c opening file to read 'ddfwcnfs/r1000.5.col_234.cnf'
c found 'p cnf 234000 35431408' header
c parsed 35431408 clauses in 24.96 seconds process time
c closing file 'ddfwcnfs/r1000.5.col_234.cnf'
c after reading 604318885 bytes 576.3 MB
c 
c --- [ options ] ------------------------------------------------------------
c 
c all options are set to their default value
c 
c --- [ solving ] ------------------------------------------------------------
c 
c time measured in process time since initialization
c 
c  seconds    reductions  redundant   irredundant
c          MB     restarts       trail         variables
c            level   conflicts       glue            remaining
c 
c * 24.96 2880  0 0   0    0    0  0% 0 35300715 178751 76%
c { 25.03 2882  0 0   0    0    0  0% 0 35300715 178751 76%
c - 32.54 2887 227 1   0  300  218 72% 20 35241337 178751 76%
c } 33.29 2887 116 1   7 1000  747 48% 17 35241337 178751 76%
c [ 33.29 2887  0 1   7 1000  747  0% 0 35241337 178751 76%
c O 33.30 2887 77 1   7 1002  749 34% 2 35241337 178751 76%
c - 55.05 3695 151 2   8 2432 1737 44% 36 35241337 178751 76%
c ] 55.39 3695 167 2   8 3001 2197 46% 47 35241337 178751 76%
c { 55.39 3695 116 2   8 3001 2197 48% 17 35241337 178751 76%
c F 78.36 3697 116 2   8 3003 2199  2% 17 35241337 178751 76%
c p 117.13 3704 115 2 322 5000 3661 16% 27 35241337 178751 76%
c - 146.96 3704 109 3 461 5625 3022 17% 29 35241337 178751 76%
c # 147.94 3704 109 3 530 6004 3348 17% 30 35241337 178751 76%
c } 149.91 3704 104 3 747 7001 4089 17% 32 35241337 178751 76%
c [ 149.91 3704 167 3 747 7001 4089 60% 47 35241337 178751 76%
c - 175.15 3705 152 4 749 9883 4415 39% 55 35241337 178751 76%
c I 175.31 3705 153 4 749 10005 4525 39% 55 35241337 178751 76%
c ] 178.02 3705 278 4 752 15001 8589 26% 45 35241337 178751 76%
c { 178.02 3705 104 4 752 15001 8589 17% 32 35241337 178751 76%
c p 221.32 3705 104 4 753 15001 8599 17% 32 35241337 178751 76%
c 
c  seconds      reductions   redundant    irredundant
c           MB      restarts        trail          variables
c              level    conflicts       glue             remaining
c 
c B 230.85 3705 105 4 753 15009 8606 17% 32 35241337 178751 76%
c - 249.51 3705 106 5 770 15204 5652 17% 32 35241337 178751 76%
c s 267.93 3707 106 5 779 15252 5602 17% 33 35241337 178751 76%
c w 321.40 3708 106 5 779 15252 5600 17% 33 35241337 178751 76%
c e 360.14 4041 106 5 779 15252 5592 17% 33 17779453 119109 51%
c s 361.11 4041 106 5 779 15252 5565 17% 33 17779453 119109 51%
c ^ 368.37 4041 106 5 779 15252 5565 17% 33 17779453 119109 51%
c W 403.63 3508 92 5 1493 21010 9489 22% 34 17779453 119109 51%
c - 413.19 3508 91 6 1561 21589 6371 23% 34 17779453 119109 51%
c F 416.44 3508 91 6 1971 28011 11179 22% 33 17779453 119109 51%
c - 425.37 3509 90 7 2025 28414 7075 22% 33 17779453 119109 51%
c p 443.02 3509 87 7 2314 30001 7968 21% 33 17779453 119109 51%
c } 447.53 3509 84 7 2386 31002 8394 21% 33 17779453 119109 51%
c [ 447.53 3509 278 7 2386 31002 8394 38% 45 17779453 119109 51%
c B 449.28 3509 197 7 2389 36013 10919 30% 43 17779453 119109 51%
c - 458.01 3508 205 8 2389 36215 6016 30% 43 17779453 119109 51%
c s 463.75 3508 254 8 2393 44142 12152 35% 61 17779453 119109 51%
c w 486.87 3508 254 8 2393 44142 12148 35% 61 17779453 119109 51%
c s 496.19 3508 254 8 2393 44142 12136 35% 61 17779453 119109 51%
c ^ 502.05 3508 254 8 2393 44142 12136 35% 61 17779453 119109 51%
c 
c  seconds      reductions    redundant    irredundant
c           MB      restarts         trail          variables
c              level     conflicts       glue             remaining
c 
c - 513.71 3514 256 9 2393 44991 8917 36% 64 17779453 119109 51%
c W 542.49 3514 257 9 2393 45017 8942 36% 65 17779453 119109 51%
c p 563.54 3514 270 9 2394 50004 13061 40% 72 17779453 119109 51%
c - 579.19 3512 248 10 2395 54741 10020 39% 76 17779453 119109 51%
c O 579.31 3512 247 10 2395 55019 10205 39% 76 17779453 119109 51%
c ] 583.83 3512 222 10 2401 63006 16203 39% 75 17779453 119109 51%
c { 583.83 3512 84 10 2401 63006 16203 21% 33 17779453 119109 51%
c - 594.10 3511 85 11 2479 65465 11313 22% 33 17779453 119109 51%
c B 594.25 3511 85 11 2479 66021 11800 22% 33 17779453 119109 51%
c } 614.01 3511 88 11 3357 75004 17857 22% 32 17779453 119109 51%
c ? 614.01 3511 88 11 3357 75004 17857 22% 32 17779453 119109 51%
c 
c --- [ result ] -------------------------------------------------------------
c 
c UNKNOWN
c 
c --- [ run-time profiling ] -------------------------------------------------
c 
c process time taken by individual solving procedures
c (percentage relative to process time for solving)
c 
c       304.32   51.66% search
c       284.73   48.34% simplify
c       154.84   26.29% unstable
c       107.14   18.19% stable
c        77.45   13.15% ternary
c        60.29   10.23% vivify
c        45.44    7.71% elim
c        42.27    7.18% walk
c        24.96    4.24% parse
c        20.15    3.42% subsume
c         5.77    0.98% probe
c         0.07    0.01% lucky
c   =================================
c       589.05   95.94% solve
c 
c last line shows process time for solving
c (percentage relative to total process time)
c 
c --- [ statistics ] ---------------------------------------------------------
c 
c chronological:             19484        25.98 %  of conflicts
c conflicts:                 75004       127.33    per second
c decisions:                247122       419.53    per second
c eliminated:                59642        25.49 %  of all variables
c fixed:                     55249        23.61 %  of all variables
c learned:                   73967        98.62 %  per conflict
c learned_lits:           15129781       100.00 %  learned literals
c minimized:                     0         0.00 %  learned literals
c shrunken:                7112353        47.01 %  learned literals
c minishrunken:             428072         2.83 %  learned literals
c propagations:          117294749         0.20 M  per second
c reduced:                   36084        48.11 %  per conflict
c rephased:                     11      6818.55    interval
c restarts:                   3357        22.34    interval
c stabilizing:                   3        56.00 %  of conflicts
c subsumed:                  20014         0.03 %  of all clauses
c strengthened:               1370         0.00 %  of all clauses
c vivified:                     13         0.00 %  of all clauses
c walked:                        2     37502.00    interval
c weakened:               17462469         2.00    average size
c 
c seconds are measured in process time for solving
c 
c --- [ resources ] ----------------------------------------------------------
c 
c total process time since initialization:       614.01    seconds
c total real time since initialization:          614.15    seconds
c maximum resident set size of process:         4782.35    MB
c 
c --- [ shutting down ] ------------------------------------------------------
c 
c exit 0
